1 0 2 1101 665 0000420 4036434
2 0 3 1101 036 0010006 1403336
3 0 4 1101 627 0007400 0570215
4 0 5 1101 607 0002400 4214644
5 0 6 1101 246 0300020 5066452
10 2 4 1101 715 0000011 5023272
13 3 5 1101 321 2000050 2065614
16 3 3 1101 511 0300200 7006157
19 4 6 1101 327 4000050 4160665
22 5 2 1101 760 0005070 4213762
25 6 5 1101 323 0050010 4416041
28 0 3 1011 231 0450000 2610410
31 1 6 1011 543 4005000 3505750
34 2 2 1011 460 2007000 3467201
37 3 5 1011 740 5000400 7044554
40 4 1 1011 041 0064000 5252444